NAME : portcgen-10-100
COMMENT : portcgen N=10, seed=100
TYPE : TSP
DIMENSION : 10
EDGE_WEIGHT_TYPE : EUC_2D
NODE_COORD_SECTION
1 99 72
2 67 68
3 76 77
4 109 109
5 100 83
6 62 50
7 69 72
8 76 77
9 66 65
10 74 70
